UBC_100_8.txt

VEHICLE     CAPACITY  LOCATIONS  CUSTOMER  OPTIONS  PRIORITIES  NUMTYPS
10		400		105		100		200		3		4

CUSTOMER  DEMAND
0	 18
1	 15
2	 16
3	 13
4	 17
5	 19
6	 16
7	 13
8	 11
9	 15
10	 11
11	 12
12	 20
13	 18
14	 13
15	 16
16	 18
17	 20
18	 16
19	 13
20	 11
21	 20
22	 13
23	 15
24	 11
25	 12
26	 18
27	 12
28	 10
29	 10
30	 13
31	 13
32	 11
33	 18
34	 19
35	 12
36	 15
37	 12
38	 17
39	 15
40	 18
41	 16
42	 20
43	 17
44	 17
45	 12
46	 19
47	 15
48	 19
49	 11
50	 13
51	 12
52	 17
53	 20
54	 19
55	 15
56	 14
57	 19
58	 15
59	 14
60	 14
61	 14
62	 17
63	 17
64	 17
65	 15
66	 13
67	 13
68	 10
69	 10
70	 17
71	 13
72	 11
73	 14
74	 10
75	 20
76	 12
77	 13
78	 16
79	 17
80	 19
81	 19
82	 18
83	 16
84	 16
85	 20
86	 16
87	 15
88	 10
89	 13
90	 20
91	 12
92	 11
93	 16
94	 18
95	 15
96	 15
97	 15
98	 16
99	 18

LOCATION  XCOORD  YCOORD  CAP  READY  DUE  TYP  SERVICETIME
0		28		50		-1		0		720	 0		0
1		47		10		-1		0		360		 2		6
2		21		24		-1		85		205		 2		6
3		47		45		-1		377		617		 2		6
4		11		24		-1		0		360		 2		6
5		12		3		-1		111		351		 2		6
6		3		38		-1		430		550		 2		6
7		3		7		-1		0		360		 2		6
8		45		6		-1		466		586		 2		6
9		8		49		-1		544		664		 2		6
10		48		6		-1		360		720		 2		6
11		7		21		-1		495		615		 2		6
12		29		42		-1		0		360		 2		6
13		11		27		-1		274		514		 2		6
14		32		7		-1		360		720		 2		6
15		22		2		-1		0		360		 2		6
16		42		30		-1		0		360		 2		6
17		22		18		-1		0		360		 2		6
18		48		50		-1		97		337		 2		6
19		17		16		-1		457		697		 2		6
20		13		34		-1		0		360		 2		6
21		24		14		-1		110		230		 2		6
22		17		32		-1		104		344		 2		6
23		28		4		-1		360		720		 2		6
24		38		16		-1		360		720		 2		6
25		9		1		-1		360		720		 2		6
26		22		32		-1		137		257		 2		6
27		44		37		-1		0		360		 2		6
28		5		16		-1		554		674		 2		6
29		44		46		-1		169		409		 2		6
30		5		3		-1		159		279		 2		6
31		36		42		-1		497		617		 2		6
32		43		1		-1		393		513		 2		6
33		19		6		-1		0		360		 2		6
34		43		13		-1		56		176		 2		6
35		8		19		-1		477		597		 2		6
36		7		9		-1		81		201		 2		6
37		34		46		-1		130		250		 2		6
38		49		12		-1		360		720		 2		6
39		2		9		-1		12		132		 2		6
40		41		30		-1		151		271		 2		6
41		47		22		-1		360		720		 2		6
42		49		44		-1		66		306		 2		6
43		34		24		-1		0		360		 2		6
44		50		38		-1		54		294		 2		6
45		42		34		-1		493		613		 2		6
46		36		32		-1		422		542		 2		6
47		42		5		-1		0		360		 2		6
48		48		31		-1		0		360		 2		6
49		50		15		-1		266		506		 2		6
50		34		9		-1		538		658		 2		6
51		16		4		-1		0		360		 2		6
52		34		2		-1		0		360		 2		6
53		22		46		-1		0		360		 2		6
54		49		32		-1		457		697		 2		6
55		9		22		-1		360		720		 2		6
56		31		45		-1		449		569		 2		6
57		38		17		-1		30		150		 2		6
58		33		4		-1		360		720		 2		6
59		40		10		-1		437		557		 2		6
60		45		45		-1		18		258		 2		6
61		35		31		-1		360		720		 2		6
62		10		10		-1		587		707		 2		6
63		17		43		-1		0		360		 2		6
64		14		3		-1		307		547		 2		6
65		40		5		-1		469		709		 2		6
66		8		21		-1		360		720		 2		6
67		9		17		-1		442		562		 2		6
68		38		45		-1		369		489		 2		6
69		16		35		-1		385		505		 2		6
70		48		8		-1		360		720		 2		6
71		38		13		-1		138		378		 2		6
72		43		19		-1		170		290		 2		6
73		12		46		-1		37		157		 2		6
74		43		44		-1		360		720		 2		6
75		9		43		-1		360		720		 2		6
76		18		5		-1		360		720		 2		6
77		30		2		-1		580		700		 2		6
78		35		19		-1		360		720		 2		6
79		18		46		-1		37		157		 2		6
80		21		45		-1		352		592		 2		6
81		7		14		-1		116		356		 2		6
82		16		39		-1		0		360		 2		6
83		13		14		-1		0		360		 2		6
84		35		20		-1		0		360		 2		6
85		50		13		-1		360		720		 2		6
86		31		13		-1		360		720		 2		6
87		30		43		-1		82		202		 2		6
88		7		12		-1		535		655		 2		6
89		50		30		-1		0		360		 2		6
90		44		30		-1		394		514		 2		6
91		24		24		-1		88		208		 2		6
92		43		48		-1		378		618		 2		6
93		8		17		-1		130		370		 2		6
94		11		12		-1		421		541		 2		6
95		22		21		-1		0		360		 2		6
96		29		44		-1		360		720		 2		6
97		34		42		-1		564		684		 2		6
98		30		46		-1		360		720		 2		6
99		17		16		-1		114		354		 2		6
100		4		7		-1		161		401		 2		6
101		20		27		30		104		584		 1		4
102		37		36		11		0		720		 1		4
103		41		14		29		0		720		 1		4
104		11		16		14		0		720		 1		4
OPTION  LOCATION  CUSTOMER  PRIO  SERVICETIME   COST
0		101		0		0		2		0
1		101		1		0		2		0
2		104		2		0		2		0
3		103		3		0		2		0
4		103		4		0		2		0
5		101		5		0		2		0
6		104		6		0		2		0
7		101		7		0		2		0
8		102		8		0		2		0
9		102		9		0		2		0
10		102		10		0		2		0
11		104		11		0		2		0
12		101		12		0		2		0
13		101		13		0		2		0
14		103		14		0		2		0
15		101		15		0		2		0
16		103		16		0		2		0
17		104		17		0		2		0
18		104		18		0		2		0
19		102		19		0		2		0
20		1		20		0		5		0
21		2		21		0		5		0
22		3		22		0		5		0
23		4		23		0		5		0
24		5		24		0		5		0
25		6		25		0		5		0
26		7		26		0		5		0
27		8		27		0		5		0
28		9		28		0		5		0
29		10		29		0		5		0
30		11		30		0		5		0
31		12		31		0		5		0
32		13		32		0		5		0
33		14		33		0		5		0
34		15		34		0		5		0
35		16		35		0		5		0
36		17		36		0		5		0
37		18		37		0		5		0
38		19		38		0		5		0
39		20		39		0		5		0
40		21		40		0		5		0
41		101		40		1		2		0
42		22		41		1		5		0
43		103		41		0		2		0
44		23		42		0		5		0
45		101		42		1		2		0
46		24		43		1		5		0
47		101		43		0		2		0
48		25		44		1		5		0
49		104		44		0		2		0
50		26		45		0		5		0
51		104		45		1		2		0
52		27		46		0		5		0
53		104		46		1		2		0
54		28		47		1		5		0
55		102		47		0		2		0
56		29		48		1		5		0
57		104		48		0		2		0
58		30		49		1		5		0
59		101		49		0		2		0
60		31		50		1		5		0
61		104		50		0		2		0
62		32		51		1		5		0
63		102		51		0		2		0
64		33		52		0		5		0
65		103		52		1		2		0
66		34		53		1		5		0
67		101		53		0		2		0
68		35		54		1		5		0
69		101		54		0		2		0
70		36		55		1		5		0
71		101		55		0		2		0
72		37		56		0		5		0
73		103		56		1		2		0
74		38		57		1		5		0
75		102		57		0		2		0
76		39		58		0		5		0
77		102		58		1		2		0
78		40		59		1		5		0
79		103		59		0		2		0
80		41		60		0		5		0
81		101		60		1		2		0
82		102		60		2		2		0
83		42		61		1		5		0
84		101		61		0		2		0
85		104		61		2		2		0
86		43		62		0		5		0
87		102		62		1		2		0
88		104		62		2		2		0
89		44		63		0		5		0
90		102		63		1		2		0
91		104		63		2		2		0
92		45		64		0		5		0
93		102		64		1		2		0
94		103		64		2		2		0
95		46		65		0		5		0
96		101		65		1		2		0
97		102		65		2		2		0
98		47		66		1		5		0
99		101		66		2		2		0
100		102		66		0		2		0
101		48		67		1		5		0
102		104		67		2		2		0
103		103		67		0		2		0
104		49		68		0		5		0
105		104		68		1		2		0
106		103		68		2		2		0
107		50		69		1		5		0
108		101		69		2		2		0
109		103		69		0		2		0
110		51		70		0		5		0
111		102		70		1		2		0
112		101		70		2		2		0
113		52		71		0		5		0
114		104		71		1		2		0
115		103		71		2		2		0
116		53		72		2		5		0
117		102		72		1		2		0
118		104		72		0		2		0
119		54		73		1		5		0
120		101		73		2		2		0
121		104		73		0		2		0
122		55		74		0		5		0
123		103		74		2		2		0
124		102		74		1		2		0
125		56		75		0		5		0
126		103		75		1		2		0
127		104		75		2		2		0
128		57		76		2		5		0
129		102		76		1		2		0
130		101		76		0		2		0
131		58		77		2		5		0
132		102		77		0		2		0
133		101		77		1		2		0
134		59		78		0		5		0
135		101		78		1		2		0
136		103		78		2		2		0
137		60		79		2		5		0
138		103		79		1		2		0
139		104		79		0		2		0
140		61		80		2		5		0
141		62		80		0		5		0
142		101		80		1		2		0
143		63		81		2		5		0
144		64		81		1		5		0
145		104		81		0		2		0
146		65		82		2		5		0
147		66		82		0		5		0
148		102		82		1		2		0
149		67		83		1		5		0
150		68		83		2		5		0
151		101		83		0		2		0
152		69		84		2		5		0
153		70		84		0		5		0
154		103		84		1		2		0
155		71		85		1		5		0
156		72		85		0		5		0
157		102		85		2		2		0
158		73		86		1		5		0
159		74		86		0		5		0
160		103		86		2		2		0
161		75		87		0		5		0
162		76		87		1		5		0
163		103		87		2		2		0
164		77		88		1		5		0
165		78		88		2		5		0
166		102		88		0		2		0
167		79		89		2		5		0
168		80		89		1		5		0
169		103		89		0		2		0
170		81		90		0		5		0
171		82		90		1		5		0
172		103		90		2		2		0
173		83		91		2		5		0
174		84		91		0		5		0
175		104		91		1		2		0
176		85		92		0		5		0
177		86		92		1		5		0
178		104		92		2		2		0
179		87		93		2		5		0
180		88		93		0		5		0
181		104		93		1		2		0
182		89		94		1		5		0
183		90		94		2		5		0
184		101		94		0		2		0
185		91		95		0		5		0
186		92		95		2		5		0
187		102		95		1		2		0
188		93		96		2		5		0
189		94		96		1		5		0
190		103		96		0		2		0
191		95		97		1		5		0
192		96		97		2		5		0
193		102		97		0		2		0
194		97		98		1		5		0
195		98		98		2		5		0
196		101		98		0		2		0
197		99		99		1		5		0
198		100		99		0		5		0
199		104		99		2		2		0
